! Solving for graph /home/truongxuanhieu/CPLEX-CP-for-MinSpanLabeling/benchmarks/cabp/S-sherman4.mtx.rnd
! Target value is set to 258
! Lower bound is set to 259
! Upper bound is set to 546
! Time limit is set to 1800
! Vertices mode is set to Has hole
! Target value mode is set to Cyclic Antibandwidth
 ! --------------------------------------------------- CP Optimizer 22.2.0.0 --
 ! Minimization problem - 547 variables, 1344 constraints, 1 phase
 ! TimeLimit            = 1800
 ! LogVerbosity         = Terse
 ! Initial process time : 0.04s (0.04s extraction + 0.00s propagation)
 !  . Log search space  : 4963.5 (before), 4963.5 (after)
 !  . Memory usage      : 2.8 MB (before), 2.8 MB (after)
 ! Using parallel search with 8 workers.
 ! ----------------------------------------------------------------------------
 !          Best Branches  Non-fixed    W       Branch decision
                        0        547                 -
 + New bound is 516
                       32        546    1   F   259 != _int165
 + New bound is 517
 *           517      578  0.13s        1      (gap is 0.00%)
 ! ----------------------------------------------------------------------------
 ! Search completed, 1 solution found.
 ! Best objective         : 517 (optimal - effective tol. is 0)
 ! Best bound             : 517
 ! ----------------------------------------------------------------------------
 ! Number of branches     : 6317
 ! Number of fails        : 1210
 ! Total memory usage     : 50.4 MB (49.0 MB CP Optimizer + 1.3 MB Concert)
 ! Time spent in solve    : 0.13s (0.09s engine + 0.04s extraction)
 ! Search speed (br. / s) : 70188.9
 ! ----------------------------------------------------------------------------
! --------------------------------------------------------
! Best span = 517
! Labeling: 259 259 1 1 1 259 259 259 259 259 1 259 259 1 259 259 259 1 1 1 259 1 1 259 1 1 259 259 259 1 1 1 1 1 259 259 1 259 1 259 259 1 259 1 1 1 1 1 1 1 1 1 259 259 1 259 259 1 1 1 1 1 1 1 1 259 1 259 1 259 1 259 259 259 259 259 259 1 259 259 1 1 259 1 259 259 1 259 259 259 259 259 1 1 259 1 259 1 1 1 1 259 259 1 1 1 1 259 1 259 1 259 259 259 259 1 1 1 1 1 259 1 1 1 1 1 1 259 1 1 259 1 1 1 1 259 259 1 259 1 1 1 259 259 259 259 259 259 1 259 259 1 259 259 1 1 1 1 259 259 259 259 1 259 1 1 259 1 259 259 259 259 1 1 259 1 1 1 259 259 259 259 259 259 259 1 1 1 1 259 259 1 259 1 1 1 259 259 259 1 259 259 259 1 1 1 259 259 1 259 259 1 259 1 259 259 1 259 1 1 1 1 259 259 259 1 259 1 1 259 1 259 259 1 1 1 1 259 259 259 1 1 259 259 1 1 1 1 259 259 259 259 1 1 1 1 259 1 1 259 259 1 259 259 517 1 1 1 1 1 259 1 1 259 259 259 1 259 1 1 1 259 1 259 1 1 259 1 1 259 259 1 1 1 1 1 259 259 1 1 259 259 259 259 259 1 259 259 259 259 1 1 259 1 259 1 259 259 1 259 1 1 259 259 1 259 259 1 1 259 259 259 1 1 1 1 1 1 259 259 1 1 259 1 1 259 1 259 1 259 259 259 1 259 1 259 259 259 259 259 259 259 259 1 259 1 1 1 1 259 1 259 259 259 259 1 259 259 1 259 259 259 1 1 1 259 1 259 259 259 259 1 259 1 1 1 259 259 259 1 1 1 259 259 1 259 1 259 259 1 259 1 1 1 1 259 259 259 1 259 259 259 259 1 1 1 259 259 259 259 1 259 259 1 1 1 1 259 1 1 259 259 1 259 259 259 1 259 259 1 259 1 1 1 1 259 259 259 259 259 1 1 259 259 1 259 1 1 1 1 259 1 1 259 259 1 259 1 259 1 1 259 259 1 259 259 259 259 1 259 259 259 259 1 259 1 259 1 259 259 1 259 1 1 1 1 1 1 259 1 1 1 1 1 1 1 259 1 259 1 259 259 259 1 259 259 1 1 1 259 1 259 259 1 1 259 259 259 1 259 259 259 259 259 1 1 
! -------------------------------------------------------- 
